instances/RANDOM_GRAPHS/RANDOM_20_0.6_3_4/BilevelModel_0.6.lp
\ENCODING=ISO-8859-1
\Problem name: IloCplex

Minimize
 obj1: 2 x_a_0 + 3 x_a_1 + 2 x_a_2 + 3 x_a_3 + 2 x_a_4 + x_a_5 + 3 x_a_6
       + 3 x_a_7 + 3 x_a_8 + 2 x_a_9 + 3 x_a_10 + x_a_11 + x_a_12 + x_a_13
       + x_a_14 + x_a_15 + x_a_16 + x_a_17 + x_a_18 + x_a_19 + 2 x_a_20
       + 2 x_a_21 + 2 x_a_22 + x_a_23 + x_a_24 + 3 x_a_25 + 2 x_a_26 + 3 x_a_27
       + 2 x_a_28 + 3 x_a_29 + 2 x_a_30 + x_a_31 + x_a_32 + 3 x_a_33 + 3 x_a_34
       + 3 x_a_35 + 3 x_a_36 + x_a_37 + 3 x_a_38 + x_a_39 + x_a_40 + 3 x_a_41
       + 2 x_a_42 + 3 x_a_43 + x_a_44 + 2 x_a_45 + 2 x_a_46 + 2 x_a_47
       + 2 x_a_48 + 3 x_a_49 + 3 x_a_50 + 3 x_a_51 + 3 x_a_52 + 3 x_a_53
       + 2 x_a_54 + 2 x_a_55 + 3 x_a_56 + 2 x_a_57 + 3 x_a_58 + 2 x_a_59
       + 3 x_a_60 + 2 x_a_61 + 2 x_a_62 + 3 x_a_63 + 3 x_a_64
       + 1000000000 x_a_65 + 1000000000 x_a_66 + 1000000000 x_a_67
       + 1000000000 x_a_68 + 1000000000 x_a_69 + 1000000000 x_a_70
       + 1000000000 x_a_71 + 1000000000 x_a_72 + 10000 x_a_73
Subject To
 c1:  y_a_65 + y_a_66 + y_a_67 + y_a_68 <= 19.8
 c2:  y_a_0 + y_a_1 + y_a_2 + y_a_3 + y_a_4 + y_a_5 + y_a_6 + y_a_7  = 0
 c3:  - y_a_0 + y_a_8 + y_a_9 + y_a_10 + y_a_11 + y_a_12 + y_a_13 + y_a_14
      + y_a_15  = 0
 c4:  - y_a_67 - y_a_1 - y_a_8 + y_a_16 + y_a_17 + y_a_18 + y_a_19 + y_a_20
       = 0
 c5:  - y_a_2 - y_a_9 + y_a_21 + y_a_22 + y_a_23 + y_a_24 + y_a_25 + y_a_26
      + y_a_27  = 0
 c6:  - y_a_3 - y_a_10 + y_a_28 + y_a_29 + y_a_30 + y_a_31 + y_a_32 + y_a_33
      + y_a_34 + y_a_35  = 0
 c7:  - y_a_11 - y_a_28 + y_a_36 + y_a_37 + y_a_38 + y_a_39  = 0
 c8:  - y_a_12 - y_a_21 - y_a_29 + y_a_40 + y_a_41 + y_a_42 + y_a_69 + y_a_70
       = 0
 c9:  - y_a_4 - y_a_30 - y_a_40 + y_a_43 + y_a_44 + y_a_45 + y_a_46  = 0
 c10: - y_a_5 - y_a_13 - y_a_16 - y_a_22 - y_a_41 - y_a_43 + y_a_47 + y_a_48
      + y_a_49 + y_a_50 + y_a_51  = 0
 c11: - y_a_14 - y_a_31 - y_a_36 - y_a_44 + y_a_52 + y_a_53  = 0
 c12: - y_a_23 - y_a_32 + y_a_54 + y_a_55  = 0
 c13: - y_a_15 - y_a_17 - y_a_24 - y_a_45 - y_a_47 + y_a_56 + y_a_57  = 0
 c14: - y_a_25 - y_a_33 - y_a_46 - y_a_48 - y_a_52 + y_a_58 + y_a_59  = 0
 c15: - y_a_18 - y_a_42 + y_a_60  = 0
 c16: - y_a_19 - y_a_34 - y_a_49 - y_a_58 - y_a_60 + y_a_61 + y_a_62 + y_a_72
       = 0
 c17: - y_a_65 - y_a_6 - y_a_20 - y_a_26 - y_a_37 - y_a_50 - y_a_54 - y_a_56
      + y_a_63  = 0
 c18: - y_a_27 - y_a_35 - y_a_38 - y_a_51 - y_a_55 - y_a_59 - y_a_61 + y_a_64
      + y_a_71  = 0
 c19: - y_a_7 - y_a_39 - y_a_53 - y_a_57 - y_a_62 - y_a_63 - y_a_64  = 0
 c20: y_a_65 + y_a_67 - y_a_73  = 0
 c21: - y_a_69 - y_a_70 - y_a_72 - y_a_71 + y_a_73  = 0
 c22: y_a_0 + 37 x_a_0 <= 37
 c23: y_a_1 + 44 x_a_1 <= 44
 c24: y_a_2 + 43 x_a_2 <= 43
 c25: y_a_3 + 3 x_a_3 <= 3
 c26: y_a_4 + 38 x_a_4 <= 38
 c27: y_a_5 + 33 x_a_5 <= 33
 c28: y_a_6 + 18 x_a_6 <= 18
 c29: y_a_7 + 10 x_a_7 <= 10
 c30: y_a_8 + 3 x_a_8 <= 3
 c31: y_a_9 + 43 x_a_9 <= 43
 c32: y_a_10 + 39 x_a_10 <= 39
 c33: y_a_11 + 20 x_a_11 <= 20
 c34: y_a_12 + 30 x_a_12 <= 30
 c35: y_a_13 + 15 x_a_13 <= 15
 c36: y_a_14 + 33 x_a_14 <= 33
 c37: y_a_15 + 43 x_a_15 <= 43
 c38: y_a_16 + 10 x_a_16 <= 10
 c39: y_a_17 + 13 x_a_17 <= 13
 c40: y_a_18 + 42 x_a_18 <= 42
 c41: y_a_19 + 11 x_a_19 <= 11
 c42: y_a_20 + 46 x_a_20 <= 46
 c43: y_a_21 + 14 x_a_21 <= 14
 c44: y_a_22 + 14 x_a_22 <= 14
 c45: y_a_23 + 25 x_a_23 <= 25
 c46: y_a_24 + 11 x_a_24 <= 11
 c47: y_a_25 + 35 x_a_25 <= 35
 c48: y_a_26 + 14 x_a_26 <= 14
 c49: y_a_27 + 11 x_a_27 <= 11
 c50: y_a_28 + 12 x_a_28 <= 12
 c51: y_a_29 + 21 x_a_29 <= 21
 c52: y_a_30 + 17 x_a_30 <= 17
 c53: y_a_31 + 42 x_a_31 <= 42
 c54: y_a_32 + 13 x_a_32 <= 13
 c55: y_a_33 + 15 x_a_33 <= 15
 c56: y_a_34 + 49 x_a_34 <= 49
 c57: y_a_35 + 10 x_a_35 <= 10
 c58: y_a_36 + 3 x_a_36 <= 3
 c59: y_a_37 + 43 x_a_37 <= 43
 c60: y_a_38 + 19 x_a_38 <= 19
 c61: y_a_39 + 47 x_a_39 <= 47
 c62: y_a_40 + 49 x_a_40 <= 49
 c63: y_a_41 + 35 x_a_41 <= 35
 c64: y_a_42 + 37 x_a_42 <= 37
 c65: y_a_43 + 18 x_a_43 <= 18
 c66: y_a_44 + 27 x_a_44 <= 27
 c67: y_a_45 + 7 x_a_45 <= 7
 c68: y_a_46 + 30 x_a_46 <= 30
 c69: y_a_47 + 34 x_a_47 <= 34
 c70: y_a_48 + 17 x_a_48 <= 17
 c71: y_a_49 + 5 x_a_49 <= 5
 c72: y_a_50 + 23 x_a_50 <= 23
 c73: y_a_51 + x_a_51 <= 1
 c74: y_a_52 + 21 x_a_52 <= 21
 c75: y_a_53 + 24 x_a_53 <= 24
 c76: y_a_54 + 8 x_a_54 <= 8
 c77: y_a_55 + 20 x_a_55 <= 20
 c78: y_a_56 + 10 x_a_56 <= 10
 c79: y_a_57 + 46 x_a_57 <= 46
 c80: y_a_58 + 4 x_a_58 <= 4
 c81: y_a_59 + 28 x_a_59 <= 28
 c82: y_a_60 + 12 x_a_60 <= 12
 c83: y_a_61 + 29 x_a_61 <= 29
 c84: y_a_62 + 11 x_a_62 <= 11
 c85: y_a_63 + 23 x_a_63 <= 23
 c86: y_a_64 + 35 x_a_64 <= 35
 c87: y_a_65 + 50000000 x_a_65 <= 50000000
 c88: y_a_66 + 50000000 x_a_66 <= 50000000
 c89: y_a_67 + 50000000 x_a_67 <= 50000000
 c90: y_a_68 + 50000000 x_a_68 <= 50000000
 c91: y_a_69 + 50000000 x_a_69 <= 50000000
 c92: y_a_70 + 50000000 x_a_70 <= 50000000
 c93: y_a_71 + 50000000 x_a_71 <= 50000000
 c94: y_a_72 + 50000000 x_a_72 <= 50000000
 c95: y_a_73 + 10000 x_a_73 <= 10000
Bounds
 0 <= x_a_0 <= 1
 0 <= x_a_1 <= 1
 0 <= x_a_2 <= 1
 0 <= x_a_3 <= 1
 0 <= x_a_4 <= 1
 0 <= x_a_5 <= 1
 0 <= x_a_6 <= 1
 0 <= x_a_7 <= 1
 0 <= x_a_8 <= 1
 0 <= x_a_9 <= 1
 0 <= x_a_10 <= 1
 0 <= x_a_11 <= 1
 0 <= x_a_12 <= 1
 0 <= x_a_13 <= 1
 0 <= x_a_14 <= 1
 0 <= x_a_15 <= 1
 0 <= x_a_16 <= 1
 0 <= x_a_17 <= 1
 0 <= x_a_18 <= 1
 0 <= x_a_19 <= 1
 0 <= x_a_20 <= 1
 0 <= x_a_21 <= 1
 0 <= x_a_22 <= 1
 0 <= x_a_23 <= 1
 0 <= x_a_24 <= 1
 0 <= x_a_25 <= 1
 0 <= x_a_26 <= 1
 0 <= x_a_27 <= 1
 0 <= x_a_28 <= 1
 0 <= x_a_29 <= 1
 0 <= x_a_30 <= 1
 0 <= x_a_31 <= 1
 0 <= x_a_32 <= 1
 0 <= x_a_33 <= 1
 0 <= x_a_34 <= 1
 0 <= x_a_35 <= 1
 0 <= x_a_36 <= 1
 0 <= x_a_37 <= 1
 0 <= x_a_38 <= 1
 0 <= x_a_39 <= 1
 0 <= x_a_40 <= 1
 0 <= x_a_41 <= 1
 0 <= x_a_42 <= 1
 0 <= x_a_43 <= 1
 0 <= x_a_44 <= 1
 0 <= x_a_45 <= 1
 0 <= x_a_46 <= 1
 0 <= x_a_47 <= 1
 0 <= x_a_48 <= 1
 0 <= x_a_49 <= 1
 0 <= x_a_50 <= 1
 0 <= x_a_51 <= 1
 0 <= x_a_52 <= 1
 0 <= x_a_53 <= 1
 0 <= x_a_54 <= 1
 0 <= x_a_55 <= 1
 0 <= x_a_56 <= 1
 0 <= x_a_57 <= 1
 0 <= x_a_58 <= 1
 0 <= x_a_59 <= 1
 0 <= x_a_60 <= 1
 0 <= x_a_61 <= 1
 0 <= x_a_62 <= 1
 0 <= x_a_63 <= 1
 0 <= x_a_64 <= 1
 0 <= x_a_65 <= 1
 0 <= x_a_66 <= 1
 0 <= x_a_67 <= 1
 0 <= x_a_68 <= 1
 0 <= x_a_69 <= 1
 0 <= x_a_70 <= 1
 0 <= x_a_71 <= 1
 0 <= x_a_72 <= 1
 0 <= x_a_73 <= 1
Binaries
 x_a_0  x_a_1  x_a_2  x_a_3  x_a_4  x_a_5  x_a_6  x_a_7  x_a_8  x_a_9  x_a_10 
 x_a_11  x_a_12  x_a_13  x_a_14  x_a_15  x_a_16  x_a_17  x_a_18  x_a_19 
 x_a_20  x_a_21  x_a_22  x_a_23  x_a_24  x_a_25  x_a_26  x_a_27  x_a_28 
 x_a_29  x_a_30  x_a_31  x_a_32  x_a_33  x_a_34  x_a_35  x_a_36  x_a_37 
 x_a_38  x_a_39  x_a_40  x_a_41  x_a_42  x_a_43  x_a_44  x_a_45  x_a_46 
 x_a_47  x_a_48  x_a_49  x_a_50  x_a_51  x_a_52  x_a_53  x_a_54  x_a_55 
 x_a_56  x_a_57  x_a_58  x_a_59  x_a_60  x_a_61  x_a_62  x_a_63  x_a_64 
 x_a_65  x_a_66  x_a_67  x_a_68  x_a_69  x_a_70  x_a_71  x_a_72  x_a_73 
End
